outputs/case_122.model.txt
agent_permit_obtained = True
deposit_guarantee_fund = True
insurance_purchased = True
compensation_standard_clearly_informed = True
broker_exercise_diligence = True
broker_fulfill_fiduciary_duty = True
violation_severe = False
written_analysis_report_provided = True
product_service_suitability_confirmed = True
violate_financial_business_management = False
financial_consumer_data_fully_understood = True
violate_agent_broker_related_regulations = False
violate_broker_related_regulations = False
ensure_suitability = True
compliance_9_1 = True
violate_compensation_regulations = False
violate_suitability_rules = False
agent_license_and_insurance = True
violate_disclosure_rules = False
correction_or_penalty = False
broker_provide_written_report = True
underwriting_personnel_qualified = True
underwriting_risk_assessment_policy_implemented = True
understand_consumer_data = True
violate_advertising_regulations = False
violate_disclosure_regulations = False
violate_compensation_rules = False
violate_advertising_rules = False
underwriting_proper_signatures = True
broker_duty_of_care = True
underwriting_process_defined = True
violate_financial_or_business_management = False
assist_create_formal_appearance_flag = False
underwriting_system_compliance = True
violate_agent_broker_provisions = False
underwriting_financial_source_assessed = True
underwriting_no_unqualified_personnel = True
violate_broker_duties = False
underwriting_other_regulations_complied = True
penalty = False
underwriting_no_unfair_treatment = True
severe_violation = False
underwriting_documents_retained = True
assist_create_formal_appearance = False